% From JaCoP's nonogramRepository/data090.nin
 rows = 25;
 row_rule_len = 5;
 row_rules = array2d(1..rows, 1..row_rule_len, 
[
 0,0,0,0,1,
 0,0,0,0,3,
 0,0,0,0,5,
 1,1,1,1,5,
 0,0,0,7,3,
 0,0,0,7,5,
 0,0,0,5,7,
 0,0,0,3,5,
 0,0,0,3,3,
 0,0,0,3,3,
 0,0,0,3,3,
 0,0,0,3,3,
 0,0,0,3,3,
 0,0,1,5,12,
 0,0,7,9,3,
 0,0,0,9,5,
 0,0,0,9,7,
 0,0,0,9,1,
 0,0,0,6,9,
 0,0,0,5,9,
 0,0,0,4,9,
 0,0,0,3,9,
 0,0,0,2,9,
 0,0,0,9,5,
 0,0,0,9,6
]);

 cols = 25;
 col_rule_len = 5;
 col_rules = array2d(1..cols, 1..col_rule_len, 
[
 0,0,0,1,5,
 0,3,1,5,1,
 0,3,2,4,2,
 0,0,12,3,2,
 0,0,11,2,2,
 0,0,12,1,2,
 0,3,2,1,2,
 0,3,1,2,2,
 0,0,0,3,2,
 0,0,0,4,2,
 0,0,0,5,1,
 0,0,0,5,1,
 0,0,0,5,2,
 0,0,0,5,3,
 0,0,0,5,4,
 0,0,0,4,5,
 0,0,0,3,5,
 0,1,2,1,5,
 2,3,1,2,5,
 0,0,16,5,1,
 0,0,17,4,2,
 0,0,16,3,2,
 2,3,2,2,2,
 0,1,1,1,2,
 0,0,0,1,2
]);

